p wcnf 9 35 209
209 1 2 0
209 1 4 0
209 1 6 0
209 1 7 0
209 1 8 0
209 2 3 0
209 2 5 0
209 2 6 0
209 2 8 0
209 2 9 0
209 3 4 0
209 3 6 0
209 3 7 0
209 3 8 0
209 3 9 0
209 4 5 0
209 4 7 0
209 4 8 0
209 4 9 0
209 5 6 0
209 5 7 0
209 5 8 0
209 6 7 0
209 7 8 0
209 7 9 0
209 8 9 0
21 -1 0
21 -2 0
21 -3 0
22 -4 0
23 -5 0
25 -6 0
24 -7 0
25 -8 0
26 -9 0
